c A SAT instance generated from a 3-CNF formula that had 32 clauses and 6 variables
p cnf 6 32
-5 2 3 0
5 -3 6 0
-3 -4 6 0
-1 -5 -6 0
-5 6 -2 0
-5 2 -1 0
-6 -4 -2 0
3 -1 5 0
-5 3 2 0
-4 5 2 0
-4 -1 3 0
-5 1 6 0
-5 -2 -6 0
2 -6 4 0
-5 -6 -2 0
4 -1 -5 0
-3 5 -2 0
-6 -3 4 0
-2 3 -6 0
-3 4 -5 0
-2 6 -1 0
5 -6 -4 0
-5 4 1 0
-1 3 5 0
-2 -1 6 0
4 -6 1 0
2 -4 -1 0
6 -5 -2 0
6 -1 -5 0
-6 -3 -2 0
-5 3 -2 0
2 -4 3 0
